p cnf 855 2234
c ind 833 839 837 841 834 778 828 835 852 794 0
c ind 838 790 791 811 825 845 851 812 830 831 0
c ind 836 829 853 832 827 846 784 849 779 783 0
c ind 848 781 826 780 793 782 843 844 850 819 0
c ind 822 824 802 823 799 840 842 847 798 816 0
c ind 806 807 813 818 815 820 817 821 801 795 0
c ind 785 789 797 810 792 803 804 805 808 800 0
c ind 787 809 788 786 814 796 1 0
c ret 517 649 650 651 652 653 654 655 518 656 0
c ret 657 658 659 660 661 662 663 561 664 562 0
c ret 665 666 519 667 668 669 563 670 671 672 0
c ret 673 520 674 675 676 677 678 679 680 681 0
c ret 564 682 565 683 684 685 521 686 687 688 0
c ret 689 690 691 692 693 694 695 522 523 566 0
c ret 524 696 697 698 699 700 701 702 703 567 0
c ret 704 705 706 707 708 525 568 709 710 711 0
c ret 569 712 713 714 526 715 716 717 718 719 0
c ret 509 527 720 721 722 723 528 724 725 726 0
c ret 727 570 571 728 729 529 572 730 731 732 0
c ret 733 734 735 736 530 737 738 739 531 740 0
c ret 741 742 743 744 573 745 746 747 748 749 0
c ret 750 751 752 532 753 754 755 756 574 757 0
c ret 758 759 760 761 762 763 764 765 575 533 0
c ret 766 767 768 769 770 771 772 773 534 576 0
c ret 577 774 775 776 777 510 535 536 578 579 0
c ret 580 581 537 582 583 584 585 538 539 586 0
c ret 587 540 588 589 590 541 591 592 511 542 0
c ret 593 594 595 596 597 598 599 600 543 601 0
c ret 544 545 546 602 547 512 603 604 548 549 0
c ret 605 550 606 551 552 607 608 609 553 513 0
c ret 554 610 611 612 613 614 615 616 617 618 0
c ret 514 619 620 621 622 623 624 625 626 627 0
c ret 628 629 630 515 555 631 556 632 633 634 0
c ret 557 558 635 636 637 638 516 639 640 641 0
c ret 642 643 559 644 560 645 646 647 648 0
2 -181 -204 0
2 -3 -192 -204 0
-2 204 0
-2 181 192 0
-2 3 181 0
3 -4 -68 -176 178 0
-3 176 0
-3 -178 0
-3 4 0
-3 68 0
4 5 -20 -46 -58 0
-4 -5 0
-4 58 0
-4 46 0
-4 20 0
5 6 -7 0
-5 -6 0
-5 7 0
6 523 525 544 0
-6 -523 0
-6 -544 0
-6 -525 0
7 -8 523 0
7 -18 -523 0
-7 18 -523 0
-7 8 523 0
8 11 -525 0
8 -9 11 0
-8 -11 0
-8 9 525 0
9 -543 -564 0
9 -10 -564 0
-9 564 0
-9 10 543 0
10 -536 -537 -565 0
-10 536 0
-10 537 0
-10 565 0
9 11 12 -525 0
11 -12 -525 593 0
-11 525 0
-11 -12 -593 0
-9 -11 12 0
12 13 544 0
-12 -544 0
-12 -13 0
13 14 -594 0
-13 594 0
-13 -14 0
14 15 597 0
14 15 598 0
-14 -15 0
-14 -597 -598 0
15 16 -17 544 594 0
-15 17 0
-15 -16 0
-15 -544 0
-15 -594 0
16 545 554 -601 0
-16 601 0
-16 -554 0
-16 -545 0
17 -595 597 598 0
-17 595 0
-17 -598 0
-17 -597 0
-8 18 19 0
18 -19 -618 0
8 -18 19 0
-18 -19 618 0
13 19 525 544 0
-19 -525 0
-13 -19 0
-19 -544 0
20 21 -27 -33 0
20 21 -27 44 0
-20 -21 0
-20 27 0
-20 33 -44 0
21 22 -521 0
6 21 22 0
-21 -22 0
-6 -21 521 0
22 -23 -521 0
7 22 521 0
-7 -22 521 0
-22 23 -521 0
7 23 24 0
23 -24 644 0
-7 -23 24 0
-23 -24 -644 0
-6 24 -26 0
-6 24 -25 594 0
6 -24 0
-24 26 -594 0
-24 25 26 0
25 523 525 0
-25 -523 0
-25 -525 0
-14 26 594 0
-14 26 544 0
14 -26 0
-26 -544 -594 0
27 30 -638 0
27 -28 30 0
-27 -30 0
-27 28 638 0
28 -29 -629 0
28 629 640 0
-28 629 -640 0
-28 29 -629 0
29 561 562 0
29 549 -562 0
-29 -561 562 0
-29 -549 -562 0
29 30 31 638 0
-30 -638 0
-30 -31 0
-29 -30 0
31 -32 639 0
-31 -639 0
-31 32 0
32 604 628 0
-32 -604 0
-32 -628 0
33 40 629 636 0
33 -34 40 636 0
-33 -40 0
-33 -636 0
-33 34 -629 0
34 -523 629 0
34 -35 523 0
-34 -523 -629 0
-34 35 523 0
35 36 525 0
35 36 604 0
-35 -36 0
-35 -525 -604 0
36 37 525 0
-36 -525 0
-36 -37 0
37 -39 551 0
37 -39 -562 0
37 38 -39 0
-37 39 0
-37 -38 -551 562 0
38 581 583 584 -585 0
-38 585 0
-38 -584 0
-38 -581 0
-38 -583 0
39 583 584 0
39 562 581 0
39 581 584 0
39 562 583 0
-39 -581 -583 0
-39 -562 -584 0
32 40 41 0
-32 -40 0
-40 -41 0
41 -42 523 0
-32 41 -523 0
32 -41 -523 0
-41 42 523 0
42 -43 525 0
-42 -525 0
-42 43 0
43 -562 581 0
43 562 580 0
-43 562 -580 0
-43 -562 -581 0
44 -45 521 0
-44 -521 0
-44 45 0
-41 45 637 0
45 629 637 0
-45 -637 0
41 -45 -629 0
46 47 55 0
-46 -47 0
-46 -55 0
-25 47 -48 0
-25 47 -49 0
25 -47 0
-47 48 49 0
48 -570 571 -572 0
-48 570 0
-48 -571 0
-48 572 0
49 -50 -535 0
-49 535 0
-49 50 0
50 -523 626 0
50 -51 523 0
-50 -523 -626 0
-50 51 523 0
51 -525 602 0
51 -52 525 0
-51 -525 -602 0
-51 52 525 0
52 53 54 0
52 53 -557 -558 0
-52 -53 0
-52 -54 557 0
-52 -54 558 0
53 -533 -555 0
53 -533 -556 0
-53 533 0
-53 555 556 0
54 534 -555 -556 0
-54 556 0
-54 555 0
-54 -534 0
55 56 641 0
-55 -641 0
-55 -56 0
56 -57 523 0
-56 -523 0
-56 57 0
57 525 540 0
-57 -525 0
-57 -540 0
58 -59 -61 -64 -67 0
-58 67 0
-58 59 0
-58 64 0
-58 61 0
-33 59 60 0
45 59 60 0
-59 -60 0
33 -45 -59 0
28 60 638 0
-60 -638 0
-28 -60 0
61 62 0
49 61 63 0
-49 -61 -62 0
-61 -62 -63 0
-25 62 521 0
-62 -521 0
25 -62 0
63 -525 571 -572 0
63 -570 571 -572 0
-63 572 0
-63 -571 0
-63 525 570 0
28 64 -66 -655 0
28 64 -65 -66 0
-64 66 0
-28 -64 0
-64 65 655 0
65 521 641 0
-65 -521 0
-65 -641 0
66 520 -653 -654 0
66 -520 -653 654 0
-66 653 0
-66 -520 -654 0
-66 520 654 0
30 55 67 0
30 67 -521 0
-30 -67 0
-55 -67 521 0
68 -69 -155 -160 -170 0
-68 170 0
-68 69 0
-68 160 0
-68 155 0
-20 69 -70 142 -153 0
-69 153 0
-69 70 0
20 -69 0
-69 -142 0
70 -71 -79 86 -100 0
-70 100 0
-70 71 0
-70 79 0
-70 -86 0
8 71 -72 0
71 -72 525 544 0
-71 72 0
-8 -71 -544 0
-8 -71 -525 0
72 -77 -525 0
72 -73 74 -77 0
-72 77 0
-72 73 525 0
-72 -74 525 0
48 52 73 0
48 73 535 0
-48 -73 0
-52 -73 -535 0
74 -75 76 0
-74 75 0
-74 -76 0
-43 75 586 0
-75 -586 0
43 -75 0
-37 76 579 0
-76 -579 0
37 -76 0
77 78 -607 0
-57 77 78 0
-77 -78 0
57 -77 607 0
29 78 587 0
-78 -587 0
-29 -78 0
5 47 79 80 -84 0
-79 84 0
-79 -80 0
-5 -79 0
-47 -79 0
80 -81 -82 0
-80 81 0
-80 82 0
-42 81 612 0
81 604 612 0
-81 -612 0
42 -81 -604 0
82 83 523 0
-82 -523 0
-82 -83 0
36 -42 83 611 0
-42 83 604 611 0
42 -83 0
-83 -611 0
-36 -83 -604 0
84 -85 -632 0
-56 84 -85 0
-84 85 0
56 -84 632 0
85 -613 0
-29 85 -604 0
-29 85 614 0
29 -85 613 0
-85 604 613 -614 0
-18 86 -87 0
86 93 -523 0
-18 86 -523 0
86 -87 93 0
18 -86 -93 0
-86 87 523 0
87 88 92 0
8 87 88 -91 0
-87 -88 0
-8 -87 -92 0
-87 91 -92 0
88 525 619 625 0
88 89 -525 619 -625 0
-88 -525 625 0
-88 -89 -625 0
-88 -619 0
-88 525 -625 0
89 -90 -525 -622 0
89 -90 525 -623 0
-89 90 0
-89 -525 622 0
-89 525 623 0
90 572 -620 0
90 -620 -621 0
-90 620 0
-90 -572 621 0
-51 -83 91 624 0
-51 91 613 624 0
51 -91 0
-91 -624 0
83 -91 -613 0
-89 92 -525 -619 0
-92 525 0
-92 619 0
89 -92 0
-85 93 -94 -97 -99 0
-93 99 0
85 -93 0
-93 97 0
-93 94 0
-83 94 95 0
81 94 95 0
-94 -95 0
-81 83 -94 0
95 96 613 0
-95 -613 0
-95 -96 0
-29 96 -604 0
96 604 614 0
-96 604 -614 0
29 -96 -604 0
97 98 -525 0
-73 97 98 0
-97 -98 0
73 -97 525 0
57 98 615 0
-98 -615 0
-57 -98 0
48 98 99 -523 525 0
-98 -99 0
-48 -99 0
-99 523 0
-99 -525 0
-94 -97 100 -101 -136 0
-100 136 0
-100 101 0
97 -100 0
94 -100 0
101 -105 -127 525 0
101 -102 -105 -127 0
-101 127 0
-101 105 0
-101 102 -525 0
-11 -73 102 -103 104 0
-102 103 0
-102 -104 0
11 -102 0
73 -102 0
74 103 -587 0
-29 74 103 0
-74 -103 0
29 -103 587 0
104 -540 590 0
-104 540 0
-104 -590 0
105 -106 120 -121 -125 0
-105 125 0
-105 106 0
-105 121 0
-105 -120 0
106 -107 118 540 0
106 -107 -116 118 0
-106 107 0
-106 -118 0
-106 116 -540 0
107 -108 -111 114 -115 0
-107 115 0
-107 108 0
-107 111 0
-107 -114 0
108 -109 -575 0
108 -109 540 566 0
-108 109 0
-108 -566 575 0
-108 -540 575 0
109 110 544 0
109 110 -536 0
109 110 -547 0
-109 -110 0
-109 536 -544 547 0
110 536 545 0
110 -536 537 0
-110 -536 -537 0
-110 536 -545 0
111 112 -113 540 0
111 112 -113 -566 0
-111 113 0
-111 -112 0
-111 -540 566 0
112 545 554 0
-112 -545 0
-112 -554 0
113 -526 552 0
113 -551 -574 0
113 -526 -551 0
113 552 -574 0
-113 551 -552 0
-113 526 574 0
114 536 543 -544 0
-114 544 0
-114 -543 0
-114 -536 0
115 -553 -573 574 0
-115 553 0
-115 573 0
-115 -574 0
116 117 -539 -559 0
116 117 538 -559 0
-116 559 0
-116 -117 0
-116 -538 539 0
117 541 -542 0
117 541 560 0
-117 -541 0
-117 542 -560 0
118 -119 -528 0
118 -528 530 -532 0
-118 528 0
-118 119 -530 0
-118 119 532 0
119 -527 529 -530 531 0
-119 530 0
-119 -531 0
-119 527 0
-119 -529 0
-9 120 -544 0
-120 544 0
9 -120 0
121 -122 563 0
-29 121 -122 0
121 -122 -548 0
-121 122 0
29 -121 548 -563 0
122 124 543 0
122 123 124 0
122 124 536 0
-122 -124 0
-122 -123 -536 -543 0
123 -544 -545 546 0
-123 544 0
-123 545 0
-123 -546 0
124 548 -553 0
124 548 -549 -550 0
-124 -548 0
-124 549 553 0
-124 550 553 0
48 125 535 0
48 52 125 126 0
-48 -125 0
-125 -126 -535 0
-52 -125 -535 0
126 533 -534 0
-126 -533 0
-126 534 0
-103 127 -128 551 0
-103 127 -128 135 0
-127 128 0
103 -127 0
-127 -135 -551 0
128 -131 -587 0
128 -129 -131 553 0
-128 131 0
-128 -553 587 0
-128 129 587 0
129 -130 588 0
-129 -588 0
-129 130 0
130 582 583 0
130 -562 583 0
130 550 562 -583 0
-130 -550 -583 0
-130 -562 -583 0
-130 562 -582 583 0
-73 120 131 -132 0
73 -131 0
-120 -131 0
-131 132 0
75 132 133 -134 0
132 133 -134 551 0
-132 134 0
-132 -133 0
-75 -132 -551 0
133 -540 590 0
133 -590 607 0
133 -525 607 0
-133 540 -607 0
-133 -590 -607 0
-133 525 540 590 0
29 134 -578 -605 606 0
-134 605 0
-29 -134 0
-134 578 0
-134 -606 0
-43 -76 135 0
-76 -130 135 0
76 -135 0
43 130 -135 0
83 96 136 -137 0
-75 96 136 -137 0
-136 137 0
-96 -136 0
75 -83 -136 0
98 137 138 -139 -141 0
-137 -138 0
-137 141 0
-137 139 0
-98 -137 0
29 138 613 0
-138 -613 0
-29 -138 0
139 -140 -632 0
139 -140 523 615 0
-139 140 0
-139 -615 632 0
-139 -523 632 0
140 524 -606 0
140 -524 606 0
-140 -524 -606 0
-140 524 606 0
141 -522 -610 -630 631 0
-141 630 0
-141 -631 0
-141 522 0
-141 610 0
23 142 -521 0
142 -143 150 0
142 150 -521 0
23 142 -143 0
-142 143 521 0
-23 -142 -150 0
143 144 149 0
7 143 144 -148 0
-143 -144 0
-7 -143 -149 0
-143 148 -149 0
-25 144 645 648 0
25 144 145 645 -648 0
-25 -144 -648 0
25 -144 -145 0
-144 -645 0
25 -144 648 0
-90 145 -146 0
90 -145 0
-145 146 0
146 -523 -646 0
146 -147 523 0
-146 147 523 0
-146 -523 646 0
147 -525 -622 0
147 525 -623 0
-147 525 623 0
-147 -525 622 0
-33 -50 148 647 0
-50 148 638 647 0
50 -148 0
-148 -647 0
33 -148 -638 0
25 -145 149 -645 0
-149 645 0
-25 -149 0
145 -149 0
-27 -46 150 -151 -152 0
-150 152 0
27 -150 0
-150 151 0
46 -150 0
55 -59 151 0
-55 -151 0
59 -151 0
-25 48 152 -521 0
-152 521 0
-48 -152 0
25 -152 0
-61 153 -655 0
-61 153 -154 0
61 -153 0
-153 154 655 0
-56 154 521 0
-154 -521 0
56 -154 0
-79 -151 155 156 -158 0
-155 158 0
79 -155 0
151 -155 0
-155 -156 0
-33 156 157 0
33 -156 0
-156 -157 0
-81 157 523 0
-157 -523 0
81 -157 0
30 158 -159 -638 0
30 -96 158 -159 0
-158 159 0
-30 -158 0
96 -158 638 0
159 -635 654 0
-159 635 0
-159 -654 0
160 -161 167 0
160 165 167 0
-160 -167 0
-160 161 -165 0
161 -162 -163 0
161 -163 652 0
-161 163 0
-161 162 -652 0
162 -521 652 0
-34 162 521 0
-162 -521 -652 0
34 -162 521 0
163 -164 659 0
-41 163 521 659 0
-163 -659 0
-163 164 -521 0
41 -163 164 0
164 629 651 0
-164 -629 0
-164 -651 0
165 -166 660 0
165 652 660 0
-165 -660 0
-165 166 -652 0
-41 166 521 0
-164 166 -521 0
164 -166 -521 0
41 -166 521 0
167 168 661 0
29 167 169 661 0
-167 -661 0
-29 -167 -168 0
-167 -168 -169 0
-29 168 -652 0
168 652 663 0
-168 652 -663 0
29 -168 -652 0
-164 169 662 0
-169 -662 0
164 -169 0
161 170 171 -173 0
-44 170 171 -173 0
-170 173 0
-170 -171 0
44 -161 -170 0
171 172 -519 0
-171 519 0
-171 -172 0
-90 -146 172 521 0
-90 172 -521 -667 0
90 -172 0
-172 -521 667 0
146 -172 521 0
168 173 -174 -661 0
-28 168 173 -174 0
-173 174 0
-168 -173 0
28 -173 661 0
62 174 -175 -518 670 0
62 174 -175 518 -670 0
-174 175 0
-174 518 670 0
-62 -174 0
-174 -518 -670 0
175 -658 -664 -669 0
-175 658 0
-175 664 0
-175 669 0
-154 176 -177 0
176 -177 -664 0
-176 177 0
154 -176 664 0
21 -61 -160 177 0
160 -177 0
61 -177 0
-21 -177 0
-172 178 519 0
-22 -172 178 -179 0
172 -178 0
-178 179 -519 0
22 -178 -519 0
179 180 661 668 0
-161 179 180 668 0
-179 -180 0
-179 -668 0
161 -179 -661 0
180 -521 -649 0
50 180 521 0
-180 -521 649 0
-50 -180 521 0
181 -188 515 0
181 182 515 692 0
-181 -515 0
-181 188 -692 0
-181 -182 188 0
4 182 -183 0
182 187 -693 0
4 182 -693 0
182 -183 187 0
-182 183 693 0
-4 -182 -187 0
70 183 184 0
183 184 694 0
183 184 -635 0
-183 -184 0
-70 -183 635 -694 0
184 -186 694 695 0
184 -185 694 -695 0
-184 -694 0
-184 185 -695 0
-184 186 695 0
-71 -101 -140 185 610 0
-185 -610 0
140 -185 0
101 -185 0
71 -185 0
-105 186 578 0
-186 -578 0
105 -186 0
-69 -155 187 658 -693 0
-187 -658 0
155 -187 0
69 -187 0
-187 693 0
-3 188 -189 674 -692 0
-188 -674 0
-188 189 0
3 -188 0
-188 692 0
-176 189 -190 191 670 0
-189 -670 0
-189 -191 0
-189 190 0
176 -189 0
-154 -177 190 0
-177 190 -671 0
177 -190 0
154 -190 671 0
191 -664 671 0
-191 664 0
-191 -671 0
-189 -190 192 193 -197 0
-192 197 0
190 -192 0
189 -192 0
-192 -193 0
-172 193 517 0
-22 -172 193 -194 0
172 -193 0
-193 194 -517 0
22 -193 -517 0
180 194 -195 685 0
180 194 679 685 0
-180 -194 0
-194 -685 0
-194 195 -679 0
195 196 675 677 0
-162 195 196 675 0
-195 -675 0
-195 -196 0
162 -195 -677 0
166 196 -652 0
166 196 -676 0
-166 -196 0
-196 652 676 0
-165 -195 197 -199 0
195 197 198 -199 0
-197 199 0
165 -195 -197 0
195 -197 -198 0
-166 198 678 0
198 677 678 0
-198 -678 0
166 -198 -677 0
-61 199 -200 517 0
-61 -172 199 -200 0
-199 200 0
61 -199 0
172 -199 -517 0
62 200 -201 -202 -203 0
-62 -200 0
-200 203 0
-200 202 0
-200 201 0
201 -515 677 -681 0
29 201 -515 -677 0
-201 515 0
-29 -201 -677 0
-201 677 681 0
202 -686 687 -688 691 0
-202 688 0
-202 -691 0
-202 686 0
-202 -687 0
203 -516 -674 -679 -682 0
-203 682 0
-203 516 0
-203 679 0
-203 674 0
204 -205 270 -381 0
204 -217 270 -381 0
-204 381 0
-204 -270 0
-204 205 217 0
205 -206 510 764 0
205 206 213 510 -764 0
-205 -206 -764 0
-205 206 -213 0
-205 -510 0
-205 206 764 0
206 207 -212 0
-206 -207 0
-206 212 0
25 207 209 0
207 209 -521 0
207 -208 209 0
-207 -209 0
-25 -207 208 521 0
208 515 692 693 0
-208 -515 0
-208 -693 0
-208 -692 0
209 210 -211 0
-209 -210 0
-209 211 0
210 -525 -695 0
-210 525 0
-210 695 0
-25 -208 211 0
-208 211 694 0
208 -211 0
25 -211 -694 0
212 512 514 0
-212 -512 0
-212 -514 0
213 -214 -215 0
-213 214 0
-213 215 0
214 -621 -700 0
214 -700 703 0
-214 700 0
-214 621 -703 0
215 -512 -762 0
215 -216 512 0
-215 216 512 0
-215 -512 762 0
216 514 -716 0
216 -514 -741 0
-216 -514 741 0
-216 514 716 0
206 -213 217 218 -510 0
213 -217 0
-217 -218 0
-217 510 0
-206 -217 0
218 -238 -239 0
218 -219 -239 0
-218 239 0
-218 219 238 0
219 -220 512 0
219 -232 -512 0
-219 232 -512 0
-219 220 512 0
220 -221 -514 0
220 514 709 0
-220 514 -709 0
-220 221 -514 0
221 222 709 0
221 -222 712 0
-221 -222 -712 0
-221 222 -709 0
222 -223 -228 0
222 -228 713 0
-222 228 0
-222 223 -713 0
208 223 -224 0
-208 223 -226 0
-208 223 -225 0
208 -223 224 0
-208 -223 225 226 0
25 -26 224 0
-25 224 521 594 0
-26 224 -521 0
25 26 -224 0
26 -224 -521 0
-25 -224 521 -594 0
210 225 594 694 0
-26 -210 225 694 0
-225 -694 0
210 -225 -594 0
26 -210 -225 0
226 -227 -694 0
-226 694 0
-226 227 0
-25 227 594 0
25 -26 227 0
-25 -227 -594 0
25 26 -227 0
228 229 -230 0
228 711 714 0
228 -230 711 0
228 229 714 0
-228 -229 -711 0
-228 230 -714 0
207 229 -596 0
-229 596 0
-207 -229 0
230 231 544 0
-230 -544 0
-230 -231 0
62 209 231 0
-62 -231 0
-209 -231 0
-220 232 233 0
232 -233 739 0
-232 -233 -739 0
220 -232 233 0
233 -234 -235 0
233 -235 713 0
-233 235 0
-233 234 -713 0
-223 234 514 0
-234 -514 0
223 -234 0
235 711 714 0
235 -236 -237 0
235 -237 711 0
235 -236 714 0
-235 236 -711 0
-235 237 -714 0
236 514 596 0
-207 236 514 0
-236 -514 0
207 -236 -596 0
237 -514 714 0
-230 237 514 0
-237 -514 -714 0
230 -237 514 0
238 704 705 718 0
-238 -704 0
-238 -718 0
-238 -705 0
239 264 756 763 0
239 -240 264 763 0
-239 -264 0
-239 -763 0
-239 240 -756 0
240 250 747 754 0
240 -241 250 754 0
-240 -250 0
-240 -754 0
-240 241 -747 0
241 -245 512 0
241 -512 747 0
241 -242 512 0
-241 -512 -747 0
-241 242 245 512 0
-162 242 243 514 0
-208 242 243 514 0
-242 -514 0
-242 -243 0
162 208 -242 0
34 -208 243 -694 0
-208 243 -244 694 0
208 -243 0
-243 244 694 0
-34 -243 -694 0
-210 244 -604 0
37 210 244 0
-37 210 -244 0
-210 -244 604 0
245 246 -514 0
-245 514 0
-245 -246 0
246 -515 -723 0
246 -249 515 0
246 -247 515 0
-246 -515 723 0
-246 247 249 515 0
247 -652 692 -693 0
247 248 692 693 0
-247 -692 0
-247 -248 693 0
-247 652 -693 0
248 629 -694 0
248 604 694 -695 0
-248 -629 -694 0
-248 -604 694 0
-248 694 695 0
249 -677 -692 0
-249 677 0
-249 692 0
250 251 252 0
-250 -251 0
-250 -252 0
246 251 746 0
-251 -746 0
-246 -251 0
252 -253 512 0
-252 -512 0
-252 253 0
253 257 -514 0
253 -254 257 0
-253 -257 0
-253 254 514 0
-166 254 255 514 0
-208 254 255 514 0
-254 -514 0
-254 -255 0
166 208 -254 0
41 -208 255 256 0
-208 255 256 694 0
208 -255 0
-255 -256 0
-41 -255 -694 0
-43 210 256 694 0
-256 -694 0
43 -256 0
-210 -256 0
254 257 -258 0
-257 258 0
-254 -257 0
258 259 -677 0
258 259 -722 0
258 259 515 0
-258 -259 0
-258 -515 677 722 0
259 -261 515 692 0
259 -260 515 -692 0
-259 -515 0
-259 260 -692 0
-259 261 692 0
260 652 676 0
-260 -652 0
-260 -676 0
-164 261 -693 0
261 -263 693 0
261 -262 693 0
164 -261 -693 0
-261 262 263 693 0
-130 262 694 695 0
130 -262 0
-262 -695 0
-262 -694 0
-32 263 -694 0
-263 694 0
32 -263 0
264 -512 -744 0
264 -265 512 0
-264 265 512 0
-264 -512 744 0
265 266 -720 0
265 266 514 0
-265 -266 0
-265 -514 720 0
266 -267 514 0
-266 -514 0
-266 267 0
-208 267 -268 0
180 208 267 0
-208 267 -269 0
-180 208 -267 0
-208 -267 268 269 0
-50 268 -694 0
-268 694 0
50 -268 0
-210 269 602 694 0
-52 210 269 694 0
-269 -694 0
-210 -269 -602 0
52 210 -269 0
219 270 -271 -273 -380 0
-219 270 271 -273 -380 0
-270 380 0
219 -270 271 0
-270 273 0
-219 -270 -271 0
271 -795 -816 0
271 -272 -816 0
-271 816 0
-271 272 795 0
272 -788 -789 -817 0
-272 788 0
-272 789 0
-272 817 0
273 -274 -276 -378 803 0
273 274 -276 -378 -803 0
-273 378 0
-273 274 803 0
-273 276 0
-273 -274 -803 0
274 275 755 0
274 747 755 0
-274 -755 0
-274 -275 -747 0
252 275 512 0
251 252 275 0
-252 -275 0
-251 -275 -512 0
275 276 277 -278 -374 0
-275 276 -277 -278 -374 0
-276 374 0
-275 -276 277 0
-276 278 0
275 -276 -277 0
277 814 -839 0
277 -814 -840 0
-277 -814 840 0
-277 814 839 0
278 -279 -364 -370 837 0
278 -279 364 -370 -837 0
-278 370 0
-278 -364 -837 0
-278 279 0
-278 364 837 0
279 280 292 -294 -822 0
279 280 -292 -294 822 0
-279 -280 0
-279 -292 -822 0
-279 294 0
-279 292 822 0
280 281 -286 0
280 -281 286 0
-280 -281 -286 0
-280 281 286 0
281 -283 808 0
281 282 -283 810 0
-281 283 0
-281 -282 -808 0
-281 -808 -810 0
282 786 -820 0
-282 -786 0
-282 820 0
283 284 285 809 0
283 -284 786 809 0
-283 -809 0
-283 284 -285 0
-283 -284 -786 0
284 -787 -821 0
-284 787 0
-284 821 0
285 -810 -820 0
-285 810 0
-285 820 0
207 286 -287 288 -289 0
-286 287 0
-286 -288 0
-207 -286 0
-286 289 0
-212 231 287 557 0
-287 -557 0
212 -287 0
-231 -287 0
288 -556 -558 0
288 534 -556 -568 0
-288 556 0
-288 -534 558 0
-288 558 568 0
289 290 291 557 0
289 -290 534 557 0
-289 -557 0
-289 290 -291 0
-289 -290 -534 0
290 -535 -569 0
-290 535 0
-290 569 0
291 -558 -568 0
-291 558 0
-291 568 0
-212 292 -293 0
212 292 701 0
-212 -292 293 0
212 -292 -701 0
231 293 570 0
-293 -570 0
-231 -293 0
294 -295 -360 796 0
294 -295 359 -360 0
-294 360 0
-294 295 0
-294 -359 -796 0
295 -296 -299 -303 792 0
295 -296 299 -303 -792 0
-295 303 0
-295 -299 -792 0
-295 296 0
-295 299 792 0
296 -297 -787 0
296 297 787 0
-296 -297 787 0
-296 297 -787 0
-212 297 -298 0
212 -297 0
-297 298 0
207 298 -535 0
-298 535 0
-207 -298 0
-212 299 300 0
212 -299 0
-299 -300 0
300 301 302 0
56 300 -694 0
56 300 302 0
-56 -300 -301 0
-300 -302 694 0
-56 -300 -302 0
208 301 521 0
-301 -521 0
-208 -301 0
-208 302 -694 0
-208 210 302 540 0
208 -302 0
-302 -540 694 0
-210 -302 694 0
303 -304 -354 834 0
303 -304 -353 -354 0
-303 354 0
-303 304 0
-303 353 -834 0
304 -305 -348 -352 713 0
304 -305 348 -352 -713 0
-304 352 0
-304 -348 -713 0
-304 305 0
-304 348 713 0
305 -306 -312 -321 -327 0
-305 327 0
-305 306 0
-305 321 0
-305 312 0
306 307 308 -309 0
306 308 -309 823 0
-306 309 0
-306 -308 0
-306 -307 -823 0
-212 307 702 0
-307 -702 0
212 -307 0
308 800 -805 0
308 800 -801 -802 0
-308 -800 0
-308 801 805 0
-308 802 805 0
309 311 795 0
309 310 311 0
309 311 788 0
-309 -311 0
-309 -310 -788 -795 0
310 -796 -797 798 0
-310 796 0
-310 797 0
-310 -798 0
311 -767 827 0
311 -792 827 0
311 -818 827 0
-311 -827 0
-311 767 792 818 0
29 312 -313 -319 0
312 -313 -318 -319 0
-312 319 0
-312 313 0
-29 -312 318 0
313 -314 -317 601 850 0
313 -314 -317 -601 -850 0
-313 317 0
-313 -601 850 0
-313 314 0
-313 601 -850 0
314 -315 -316 -703 0
314 -315 -316 824 0
-314 316 0
-314 315 0
-314 703 -824 0
315 -707 725 0
-315 707 0
-315 -725 0
316 -770 -805 0
316 553 831 0
316 553 -770 0
316 -805 831 0
-316 -553 805 0
-316 770 -831 0
317 -553 -818 0
317 792 805 0
317 805 -818 0
317 -553 792 0
-317 -792 818 0
-317 553 -805 0
318 813 814 0
318 801 -814 0
-318 -813 814 0
-318 -801 -814 0
319 -320 -803 0
319 -320 804 0
-319 320 0
-319 803 -804 0
320 -621 827 0
320 -767 836 0
320 -621 -767 0
320 827 836 0
-320 621 -836 0
-320 767 -827 0
321 322 325 326 0
321 -325 -326 787 0
321 325 326 787 0
321 322 -325 -326 0
-321 325 -326 0
-321 -325 326 0
-321 -322 -787 0
322 323 324 0
322 323 -809 -810 0
-322 -323 0
-322 -324 809 0
-322 -324 810 0
323 -785 -807 0
323 -785 -808 0
-323 785 0
-323 807 808 0
324 786 -807 -808 0
-324 808 0
-324 807 0
-324 -786 0
325 747 775 0
-325 -747 0
-325 -775 0
326 -814 842 0
326 842 851 0
326 802 814 -842 0
-326 -802 -842 0
-326 814 842 -851 0
-326 -814 -842 0
327 328 329 331 -332 0
-327 332 0
-327 -331 0
-327 -328 0
-327 -329 0
307 328 823 0
328 -822 823 -824 0
-328 -823 0
-307 -328 822 0
-307 -328 824 0
329 -330 -780 0
329 -780 782 -784 0
-329 780 0
-329 330 -782 0
-329 330 784 0
330 -779 781 -782 783 0
-330 782 0
-330 -783 0
-330 779 0
-330 -781 0
29 -318 331 0
29 331 800 -815 0
-29 -331 0
318 -331 -800 0
318 -331 815 0
332 -333 -345 792 0
332 -333 -343 -345 0
-332 345 0
-332 333 0
-332 343 -792 0
333 -334 -338 -341 -342 0
-333 342 0
-333 334 0
-333 341 0
-333 338 0
334 -335 -336 756 800 0
334 -335 -336 -756 -800 0
-334 336 0
-334 -756 800 0
-334 335 0
-334 756 -800 0
335 -776 -805 -825 826 0
-335 825 0
-335 -826 0
-335 776 0
-335 805 0
336 337 -700 -830 0
336 337 700 830 0
-336 -337 0
-336 -700 830 0
-336 700 -830 0
337 788 -796 799 0
337 788 795 -796 0
-337 -788 0
-337 796 0
-337 -795 -799 0
338 -339 340 -836 0
338 -339 340 621 0
-338 339 0
-338 -340 0
-338 -621 836 0
339 703 770 0
339 -824 -831 0
339 703 -831 0
339 770 -824 0
-339 -703 824 0
-339 -770 831 0
340 797 806 0
-340 -797 0
-340 -806 0
341 -705 -714 -718 774 0
-341 718 0
-341 -774 0
-341 705 0
-341 714 0
342 -701 -704 -706 711 0
-342 706 0
-342 -711 0
-342 701 0
-342 704 0
343 -344 -793 -811 0
343 -344 -811 -812 0
-343 344 0
-343 811 0
-343 793 812 0
344 -791 794 0
344 790 -793 0
344 -791 -793 0
344 790 794 0
-344 793 -794 0
-344 -790 791 0
345 346 347 778 -826 0
345 346 347 -778 826 0
-345 -346 0
-345 778 826 0
-345 -347 0
-345 -778 -826 0
346 788 797 0
346 -788 789 0
-346 -788 -789 0
-346 788 -797 0
347 785 -786 -787 0
-347 787 0
-347 786 0
-347 -785 0
348 349 -351 0
-340 348 -351 -850 0
-348 351 0
340 -348 -349 0
-348 -349 850 0
349 -350 796 844 847 0
-349 350 0
-349 -847 0
-349 -796 0
-349 -844 0
350 -845 846 0
-350 845 0
-350 -846 0
351 844 846 0
351 796 847 0
351 844 847 0
351 796 846 0
-351 -796 -844 0
-351 -846 -847 0
215 271 352 835 0
-215 271 352 -835 0
-215 352 796 -835 0
215 352 796 835 0
215 -352 -835 0
-215 -352 835 0
-271 -352 -796 0
-206 353 -772 0
-353 772 0
206 -353 0
-206 354 -355 356 805 0
-206 354 355 356 -805 0
-354 -356 0
-354 -355 -805 0
206 -354 0
-354 355 805 0
-29 355 -747 0
355 747 758 0
-355 747 -758 0
29 -355 -747 0
356 -357 -358 0
356 357 358 0
-356 357 -358 0
-356 -357 358 0
357 512 514 710 0
-357 -512 0
-357 -710 0
-357 -514 0
358 -799 -838 0
-272 358 -838 0
-358 838 0
272 -358 799 0
359 -514 714 0
-230 359 512 514 0
359 -512 714 0
-359 -512 -714 0
230 -359 512 514 0
-359 -514 -714 0
360 -361 -362 -363 0
360 361 362 -363 0
-360 363 0
-360 -361 362 0
-360 361 -362 0
-26 361 777 0
-361 -777 0
26 -361 0
362 852 853 0
362 847 -853 0
362 -847 853 0
-362 -847 -853 0
-362 847 -852 853 0
287 353 363 -809 0
-287 353 363 809 0
-287 363 809 -834 0
287 363 -809 -834 0
-287 -363 -809 0
287 -363 809 0
-353 -363 834 0
212 364 703 0
-212 364 365 369 0
-212 -364 -365 0
212 -364 -703 0
-212 -364 -369 0
365 -367 -773 0
-208 365 -366 -773 0
-365 773 0
208 -365 367 0
-365 366 367 0
366 694 695 0
-366 -694 0
-366 -695 0
367 -368 523 0
-208 367 -368 694 0
-367 368 0
208 -367 -523 0
-367 -523 -694 0
-208 368 525 0
368 521 525 0
-368 -525 0
208 -368 -521 0
-210 369 -572 0
62 211 369 -572 0
-369 572 0
-62 210 -369 0
210 -211 -369 0
370 -371 -372 815 0
370 371 -372 -815 0
-370 372 0
-370 371 815 0
-370 -371 -815 0
-251 371 757 0
-371 -757 0
251 -371 0
372 373 -796 832 0
-359 372 -373 -832 0
372 -373 -796 -832 0
-359 372 373 832 0
-372 -373 832 0
-372 373 -832 0
359 -372 796 0
373 -512 -711 0
-229 373 512 514 0
373 -514 -711 0
-373 -514 711 0
229 -373 512 514 0
-373 -512 711 0
-241 374 -375 0
241 374 375 0
241 -374 -375 0
-241 -374 375 0
375 -377 803 0
375 -377 -814 0
375 376 -377 0
-375 377 0
-375 -376 -803 814 0
376 840 -841 842 843 0
-376 841 0
-376 -843 0
-376 -840 0
-376 -842 0
377 842 843 0
377 814 840 0
377 840 843 0
377 814 842 0
-377 -840 -842 0
-377 -814 -843 0
378 -379 -844 0
378 379 844 0
-378 -379 844 0
-378 379 -844 0
379 -512 -713 0
234 379 -713 0
234 379 512 514 0
-379 -512 713 0
-234 -379 512 0
-379 -514 713 0
240 -264 322 380 -804 0
-240 264 -322 380 804 0
240 264 -322 380 -804 0
-240 -264 322 380 804 0
-240 -380 -804 0
240 -380 804 0
264 322 -380 0
-264 -322 -380 0
381 382 -383 386 -409 0
-381 383 0
-381 -386 0
-381 -382 0
-381 409 0
-219 359 382 705 0
-357 359 382 705 0
-382 -705 0
-359 -382 0
219 357 -382 0
-359 383 384 0
383 384 385 0
-219 383 384 0
-383 -384 0
219 359 -383 -385 0
384 705 706 0
-384 -705 0
-384 -706 0
385 -705 -706 711 0
-385 705 0
-385 706 0
-385 -711 0
386 387 404 0
386 394 404 0
232 386 404 0
-386 -404 0
-232 -386 -387 -394 0
387 -388 -393 0
387 -388 392 0
-387 388 0
-387 -392 393 0
388 389 -733 0
388 389 390 -391 0
-388 -389 0
-388 391 733 0
-388 -390 733 0
389 706 707 0
-389 -706 0
-389 -707 0
29 390 -734 0
29 -258 390 0
-29 -390 0
258 -390 734 0
-29 -246 391 0
246 391 735 0
246 -391 -735 0
29 -246 -391 0
246 392 732 0
-253 392 732 0
-392 -732 0
-246 253 -392 0
-242 257 393 731 0
246 257 393 731 0
-393 -731 0
-257 -393 0
242 -246 -393 0
394 -395 399 -401 -402 0
-394 402 0
-394 395 0
-394 401 0
-394 -399 0
395 396 397 0
395 396 -514 0
-395 -396 0
-395 -397 514 0
396 704 -705 0
-396 -704 0
-396 705 0
293 397 702 -703 0
293 397 -398 -702 0
-293 -397 0
-397 398 -702 0
-397 702 703 0
398 621 -700 701 0
-398 -621 0
-398 700 0
-398 -701 0
399 400 736 0
-399 -736 0
-399 -400 0
300 400 514 0
-400 -514 0
-300 -400 0
207 401 514 0
-401 -514 0
-207 -401 0
402 -403 -512 -705 0
402 -403 -512 714 0
-402 403 0
-402 512 0
-402 705 -714 0
389 403 -704 -705 0
389 403 705 -706 0
-389 -403 0
-403 704 -705 0
-403 705 706 0
404 405 -408 512 0
404 -405 -406 512 0
-404 -512 0
-404 -405 406 0
-404 405 408 0
-214 -216 401 405 0
214 -405 0
216 -405 0
-401 -405 0
406 407 -740 0
220 238 406 -740 0
-406 740 0
-220 -406 -407 0
-238 -406 -407 0
265 -393 407 742 0
265 407 733 742 0
-265 -407 0
-407 -742 0
393 -407 -733 0
401 408 740 -743 0
-401 408 740 743 0
-408 -740 0
-401 -408 -743 0
401 -408 743 0
-237 409 410 -463 0
409 410 -461 -463 0
-409 463 0
-409 -410 0
237 -409 461 0
410 437 -514 0
410 411 413 437 0
-410 -437 0
-410 -411 514 0
-410 -413 514 0
207 411 715 719 0
-207 411 412 715 -719 0
207 -411 -719 0
-207 -411 719 0
-411 -715 0
-411 -412 -719 0
-214 412 -716 0
-412 716 0
214 -412 0
-207 -412 413 414 -715 0
412 -413 0
-413 -414 0
-413 715 0
207 -413 0
-267 414 415 -436 0
-267 414 -420 -436 0
-414 436 0
267 -414 0
-414 -415 420 0
415 -515 -679 0
415 -416 515 0
-415 416 515 0
-415 -515 679 0
416 -661 -692 0
416 -417 692 0
-416 661 -692 0
-416 417 692 0
417 -638 -693 0
417 -418 693 0
-417 638 -693 0
-417 418 693 0
418 -613 -694 0
418 -419 694 0
-418 613 -694 0
-418 419 694 0
419 -587 -695 0
419 -548 695 0
-419 548 695 0
-419 587 -695 0
-195 420 -515 0
420 -421 515 0
-420 421 515 0
195 -420 -515 0
-161 421 -692 0
421 -428 692 0
421 -422 692 0
161 -421 -692 0
-421 422 428 692 0
422 427 521 -693 0
422 -423 427 -693 0
-422 693 0
-422 -427 0
-422 423 -521 0
-164 423 424 0
-31 423 424 652 0
-423 -424 0
164 -423 -652 0
31 164 -423 0
424 -425 -650 0
-424 650 0
-424 425 0
-34 425 426 0
425 426 652 0
-425 -426 0
34 -425 -652 0
41 164 426 0
-41 -426 0
-164 -426 0
33 425 427 0
33 427 521 0
-33 -427 0
-425 -427 -521 0
428 -429 693 0
428 433 -435 693 0
-428 -693 0
-428 429 435 0
-428 429 -433 0
429 430 552 694 0
429 430 694 -695 0
-429 -430 0
-429 -694 0
-429 -552 695 0
430 431 -525 -695 0
135 430 431 -695 0
-430 695 0
-430 -431 0
-135 -430 525 0
-43 -129 431 -432 0
-129 -135 431 -432 0
-431 432 0
129 -431 0
43 135 -431 0
43 432 604 0
432 -525 603 604 0
-432 -604 0
-43 -432 525 0
-43 -432 -603 0
83 433 -434 -523 0
433 434 -523 -627 0
-433 523 0
-433 434 627 0
-83 -433 -434 0
35 434 -629 0
-434 629 0
-35 -434 0
-32 435 -523 -694 0
-83 435 523 -694 0
-435 694 0
32 -435 -523 0
83 -435 523 0
-238 436 717 0
436 709 717 0
-436 -717 0
238 -436 -709 0
-221 437 438 445 -451 0
-437 451 0
-437 -445 0
221 -437 0
-437 -438 0
420 438 439 0
-420 -438 0
-438 -439 0
198 439 -515 0
439 -440 515 0
-198 -439 -515 0
-439 440 515 0
165 440 -692 0
440 -441 692 0
-165 -440 -692 0
-440 441 692 0
44 441 -693 0
441 442 444 693 0
-44 -441 -693 0
-441 -444 693 0
-441 -442 693 0
442 -443 694 -695 0
442 551 694 695 0
-442 -694 0
-442 -551 695 0
-442 443 -695 0
-42 443 586 0
-443 -586 0
42 -443 0
-157 444 -694 0
-444 694 0
157 -444 0
415 445 446 0
-415 -445 0
-445 -446 0
201 446 -515 0
201 446 -447 0
-201 -446 0
-446 447 515 0
-168 447 -692 0
447 -448 692 0
-447 448 692 0
168 -447 -692 0
-28 448 -693 0
448 -449 693 0
-448 449 693 0
28 -448 -693 0
-96 449 -694 0
449 -450 694 0
-449 450 694 0
96 -449 -694 0
-29 450 -695 0
450 553 695 0
29 -450 -695 0
-450 -553 695 0
-29 451 -457 0
-415 451 -457 0
451 -452 -457 0
-451 457 0
29 415 -451 452 0
452 453 515 0
-260 452 453 680 0
-452 -453 0
260 -452 -515 0
-452 -515 -680 0
453 -454 515 692 0
169 453 515 -692 0
-453 -515 0
-169 -453 -692 0
-453 454 692 0
454 455 693 0
31 454 455 0
-454 -455 0
-31 -454 -693 0
455 -456 563 695 0
-129 455 -456 -695 0
-455 456 0
129 -455 -695 0
-455 -563 695 0
456 693 694 0
-456 -693 0
-456 -694 0
207 397 457 -458 -459 0
-207 -457 0
-457 459 0
-457 458 0
-397 -457 0
396 458 -697 0
300 396 458 0
-396 -458 0
-300 -458 697 0
389 -403 459 460 -514 0
403 -459 0
-459 -460 0
-459 514 0
-389 -459 0
460 705 -714 0
-460 -705 0
-460 714 0
-220 461 -705 0
385 461 -705 0
220 385 461 462 0
-220 -461 705 0
220 -385 -461 0
-461 -462 705 0
462 514 710 0
-462 -514 0
-462 -710 0
-230 438 463 -468 0
438 463 -464 -468 0
-463 468 0
-438 -463 0
230 -463 464 0
-208 464 -465 -705 0
-22 208 464 -705 0
-464 705 0
22 208 -464 0
-208 -464 465 0
465 -467 694 0
7 465 -694 0
465 -466 694 0
-7 -465 -694 0
-465 466 467 694 0
-11 466 -695 0
-466 695 0
11 -466 0
9 210 467 0
-9 -467 0
-210 -467 0
-387 468 -469 506 -507 0
-468 507 0
387 -468 0
-468 469 0
-468 -506 0
-393 469 -470 -503 0
469 -470 502 -503 0
-469 503 0
-469 470 0
393 -469 -502 0
266 -388 470 -471 0
298 -388 470 -471 0
-470 471 0
388 -470 0
-266 -298 -470 0
-415 446 471 -472 -479 0
-471 479 0
415 -471 0
-471 472 0
-446 -471 0
-292 396 472 474 0
396 472 473 474 0
-472 -474 0
-396 -472 0
292 -472 -473 0
-307 473 -703 0
307 -398 473 0
-307 -473 703 0
307 398 -473 0
-300 474 -515 688 0
-300 474 -475 515 0
300 -474 0
-474 475 515 0
-474 -515 -688 0
475 671 -692 0
475 -476 692 0
-475 -671 -692 0
-475 476 692 0
476 655 -693 0
476 -477 693 0
-476 -655 -693 0
-476 477 693 0
477 632 -694 0
477 -478 694 0
-477 -632 -694 0
-477 478 694 0
478 575 695 0
478 607 -695 0
-478 -607 -695 0
-478 -575 695 0
391 479 -480 -498 -499 0
-391 -479 0
-479 499 0
-479 498 0
-479 480 0
397 399 480 -481 -485 0
-397 -480 0
-480 485 0
-480 481 0
-399 -480 0
-230 481 -483 0
481 -482 -484 0
-230 481 -482 0
481 -483 -484 0
-481 482 483 0
230 -481 484 0
482 -709 -710 0
-482 709 0
-482 710 0
207 483 708 0
10 207 483 547 0
-207 -483 0
-10 -483 -708 0
-483 -547 -708 0
385 484 -705 0
484 -705 709 0
385 484 -709 -710 0
-484 705 709 0
-385 -484 -709 0
-484 705 710 0
485 486 -487 0
-207 485 -487 0
-293 485 -487 0
-485 487 0
207 293 -485 -486 0
486 571 -572 0
-486 -571 0
-486 572 0
355 487 -488 -494 -756 0
-487 494 0
-487 756 0
-487 488 0
-355 -487 0
488 -489 -490 -492 -493 0
-488 493 0
-488 489 0
-488 492 0
-488 490 0
489 511 -513 726 -749 0
489 511 513 -726 -749 0
489 -511 513 -726 749 0
489 -511 -513 726 749 0
-489 -511 -749 0
-489 511 749 0
-489 -513 -726 0
-489 513 726 0
490 -491 -707 725 0
-490 707 0
-490 -725 0
-490 491 0
491 696 -704 -705 -706 0
-491 -696 0
-491 706 0
-491 705 0
-491 704 0
492 749 -753 -765 766 0
-492 -749 0
-492 -766 0
-492 765 0
-492 753 0
493 -724 726 -730 -748 0
-493 748 0
-493 724 0
-493 730 0
-493 -726 0
494 495 -496 -509 766 0
494 495 -496 509 -766 0
-494 496 0
-494 509 766 0
-494 -495 0
-494 -509 -766 0
495 -514 727 0
495 -697 727 0
-495 -727 0
-495 514 697 0
496 -497 -750 0
496 -497 512 736 0
-496 497 0
-496 -736 750 0
-496 -512 750 0
497 -706 0
497 -705 -707 0
-497 706 707 0
-497 705 706 0
-395 498 -767 0
-299 -395 498 759 0
395 -498 0
-498 -759 767 0
299 -498 767 0
-458 499 500 -727 0
-400 -458 499 500 0
458 -499 0
-499 -500 0
400 -499 727 0
299 500 -501 0
299 500 750 0
299 500 759 0
-299 -500 0
-500 501 -750 -759 0
501 512 736 0
-501 -512 0
-501 -736 0
-392 502 512 0
-502 -512 0
392 -502 0
445 503 -504 -756 0
445 503 -504 -505 0
-503 504 0
-445 -503 0
-503 505 756 0
298 504 -733 0
267 -446 504 0
298 -446 504 0
267 504 -733 0
-267 -298 -504 0
446 -504 733 0
-371 -391 505 0
-29 -391 505 0
391 -505 0
29 371 -505 0
-393 506 -514 0
-393 -439 506 0
393 -506 0
439 -506 514 0
240 274 507 508 0
-240 -502 507 508 0
-507 -508 0
240 -274 -507 0
-240 502 -507 0
264 -297 508 0
-264 -508 0
297 -508 0
1 2 0
-1 -2 0
854 0

